# Solution for model problem
# Objective value = 3
can1_master 1
fp_master 1
can2_master 1
src_master 1
src_slave 0
C_can1_src 0
C_fp_src 0
C_can2_src 0
C_pulse_src 1
C_sink_src 1
map_src_CLIENT_PE0 1
map_src_CLIENT_PE1 0
map_src_CLIENT_PE2 0
map_src_CLIENT_PE3 0
map_src_CLIENT_PE4 0
map_src_CLIENT_PE5 0
map_src_CLIENT_PE6 0
map_src_CLIENT_PE7 0
map_src_CLIENT_PE8 0
map_src_CLIENT_PE9 0
map_src_CLIENT_PE10 0
map_src_CLIENT_PE11 0
map_src_CLIENT_PE12 0
map_src_CLIENT_PE13 0
map_src_CLIENT_PE14 0
map_src_CLIENT_PE15 0
map_src_CLIENT_PE16 0
dvfs_0_src 0
dvfs_1_src 0
dvfs_2_src 0
dvfs_3_src 0
dvfs_4_src 1
C_src_can1 0
C_src_fp 0
C_src_can2 0
C_src_pulse 0
C_src_sink 0
can1_slave 0
C_fp_can1 0
C_can2_can1 0
C_pulse_can1 0
C_sink_can1 0
map_can1_CLIENT_PE0 0
map_can1_CLIENT_PE2 0
map_can1_CLIENT_PE3 0
map_can1_CLIENT_PE4 0
map_can1_CLIENT_PE6 0
map_can1_CLIENT_PE7 0
map_can1_CLIENT_PE13 0
map_can1_CLIENT_PE14 1
dvfs_0_can1 0
dvfs_1_can1 0
dvfs_2_can1 0
dvfs_3_can1 0
dvfs_4_can1 1
C_can1_fp 0
C_can1_can2 0
C_can1_pulse 0
C_can1_sink 0
fp_slave 0
C_can2_fp 0
C_pulse_fp 0
C_sink_fp 0
map_fp_CLIENT_PE0 0
map_fp_CLIENT_PE2 0
map_fp_CLIENT_PE3 0
map_fp_CLIENT_PE4 0
map_fp_CLIENT_PE6 1
map_fp_CLIENT_PE7 0
map_fp_CLIENT_PE13 0
map_fp_CLIENT_PE14 0
dvfs_0_fp 0
dvfs_1_fp 0
dvfs_2_fp 0
dvfs_3_fp 0
dvfs_4_fp 1
C_fp_can2 0
C_fp_pulse 0
C_fp_sink 0
can2_slave 0
C_pulse_can2 0
C_sink_can2 0
map_can2_CLIENT_PE0 1
map_can2_CLIENT_PE2 0
map_can2_CLIENT_PE3 0
map_can2_CLIENT_PE4 0
map_can2_CLIENT_PE6 0
map_can2_CLIENT_PE7 0
map_can2_CLIENT_PE13 0
map_can2_CLIENT_PE14 0
dvfs_0_can2 0
dvfs_1_can2 0
dvfs_2_can2 0
dvfs_3_can2 0
dvfs_4_can2 1
C_can2_pulse 0
C_can2_sink 0
pulse_master 0
pulse_slave 1
C_sink_pulse 0
map_pulse_CLIENT_PE0 0
map_pulse_CLIENT_PE2 0
map_pulse_CLIENT_PE3 0
map_pulse_CLIENT_PE4 0
map_pulse_CLIENT_PE6 0
map_pulse_CLIENT_PE7 0
map_pulse_CLIENT_PE13 0
map_pulse_CLIENT_PE14 0
dvfs_0_pulse 0
dvfs_1_pulse 0
dvfs_2_pulse 0
dvfs_3_pulse 0
dvfs_4_pulse 0
C_pulse_sink 0
sink_master 0
sink_slave 1
map_sink_CLIENT_PE0 0
map_sink_CLIENT_PE1 0
map_sink_CLIENT_PE2 0
map_sink_CLIENT_PE3 0
map_sink_CLIENT_PE4 0
map_sink_CLIENT_PE5 0
map_sink_CLIENT_PE6 0
map_sink_CLIENT_PE7 0
map_sink_CLIENT_PE8 0
map_sink_CLIENT_PE9 0
map_sink_CLIENT_PE10 0
map_sink_CLIENT_PE11 0
map_sink_CLIENT_PE12 0
map_sink_CLIENT_PE13 0
map_sink_CLIENT_PE14 0
map_sink_CLIENT_PE15 0
map_sink_CLIENT_PE16 0
dvfs_0_sink 0
dvfs_1_sink 0
dvfs_2_sink 0
dvfs_3_sink 0
dvfs_4_sink 0
sl_0_a0_01 1
sl_1_a0_01 0
sl_2_a0_01 0
sl_3_a0_01 0
sl_4_a0_01 0
sl_5_a0_01 0
sl_6_a0_01 0
sl_7_a0_01 0
sl_8_a0_01 0
sl_9_a0_01 0
hop_1_a0_01 1
hop_2_a0_01 0
hop_3_a0_01 0
hop_4_a0_01 0
hop_5_a0_01 0
hop_6_a0_01 0
hop_7_a0_01 0
hop_8_a0_01 0
hop_9_a0_01 0
hop_10_a0_01 0
hop_11_a0_01 0
hop_12_a0_01 0
hop_13_a0_01 0
hop_14_a0_01 0
sl_0_a0_12 1
sl_1_a0_12 0
sl_2_a0_12 0
sl_3_a0_12 0
sl_4_a0_12 0
sl_5_a0_12 0
sl_6_a0_12 0
sl_7_a0_12 0
sl_8_a0_12 0
sl_9_a0_12 0
hop_1_a0_12 1
hop_2_a0_12 0
hop_3_a0_12 0
hop_4_a0_12 0
hop_5_a0_12 0
hop_6_a0_12 0
hop_7_a0_12 0
hop_8_a0_12 0
hop_9_a0_12 0
hop_10_a0_12 0
hop_11_a0_12 0
hop_12_a0_12 0
hop_13_a0_12 0
hop_14_a0_12 0
sl_0_a0_13 1
sl_1_a0_13 0
sl_2_a0_13 0
sl_3_a0_13 0
sl_4_a0_13 0
sl_5_a0_13 0
sl_6_a0_13 0
sl_7_a0_13 0
sl_8_a0_13 0
sl_9_a0_13 0
hop_1_a0_13 1
hop_2_a0_13 0
hop_3_a0_13 0
hop_4_a0_13 0
hop_5_a0_13 0
hop_6_a0_13 0
hop_7_a0_13 0
hop_8_a0_13 0
hop_9_a0_13 0
hop_10_a0_13 0
hop_11_a0_13 0
hop_12_a0_13 0
hop_13_a0_13 0
hop_14_a0_13 0
sl_0_a0_24 1
sl_1_a0_24 0
sl_2_a0_24 0
sl_3_a0_24 0
sl_4_a0_24 0
sl_5_a0_24 0
sl_6_a0_24 0
sl_7_a0_24 0
sl_8_a0_24 0
sl_9_a0_24 0
hop_1_a0_24 1
hop_2_a0_24 0
hop_3_a0_24 0
hop_4_a0_24 0
hop_5_a0_24 0
hop_6_a0_24 0
hop_7_a0_24 0
hop_8_a0_24 0
hop_9_a0_24 0
hop_10_a0_24 0
hop_11_a0_24 0
hop_12_a0_24 0
hop_13_a0_24 0
hop_14_a0_24 0
sl_0_a0_35 1
sl_1_a0_35 0
sl_2_a0_35 0
sl_3_a0_35 0
sl_4_a0_35 0
sl_5_a0_35 0
sl_6_a0_35 0
sl_7_a0_35 0
sl_8_a0_35 0
sl_9_a0_35 0
hop_1_a0_35 1
hop_2_a0_35 0
hop_3_a0_35 0
hop_4_a0_35 0
hop_5_a0_35 0
hop_6_a0_35 0
hop_7_a0_35 0
hop_8_a0_35 0
hop_9_a0_35 0
hop_10_a0_35 0
hop_11_a0_35 0
hop_12_a0_35 0
hop_13_a0_35 0
hop_14_a0_35 0
